100
32
15
1
9
3
25
4
13
21
5
7
5
17
17
2
2
1
3
1
1
1
17
2
4
3
17
1
4
9
20
1
2
2
2
1
1
2
17
1
17
2
2
1
17
4
3
1
1
2
1
3
8
4
5
1
18
1
1
1
18
4
1
1
16
3
2
4
3
5
2
1
3
2
1
2
1
1
1
5
2
3
2
1
1
2
18
2
1
1
2
1
1
2
2
2
2
2
1
1
1
2